
Gurobi 9.5.1 (linux64) logging started Tue Jun  7 19:40:06 2022

Set parameter LogFile to value "../results/logs/log_web-hudong.e_5_50_2022_06_07_19_12.log"
Gurobi Optimizer version 9.5.1 build v9.5.1rc2 (linux64)
Thread count: 8 physical cores, 8 logical processors, using up to 8 threads
Optimize a model with 80321 rows, 3949310 columns and 1502795 nonzeros
Model fingerprint: 0x0515c480
Variable types: 0 continuous, 3949310 integer (3949310 binary)
Coefficient statistics:
  Matrix range     [1e+00, 5e+00]
  Objective range  [1e+00, 1e+00]
  Bounds range     [1e+00, 1e+00]
  RHS range        [1e+00, 5e+01]
Found heuristic solution: objective 1055322.0000
Presolve removed 56432 rows and 3915087 columns
Presolve time: 3.57s
Presolved: 23889 rows, 34223 columns, 97816 nonzeros
Found heuristic solution: objective 1055444.0000
Variable types: 0 continuous, 34223 integer (30981 binary)

Root relaxation: objective 1.057099e+06, 13589 iterations, 0.26 seconds (0.41 work units)

    Nodes    |    Current Node    |     Objective Bounds      |     Work
 Expl Unexpl |  Obj  Depth IntInf | Incumbent    BestBd   Gap | It/Node Time

     0     0 1057099.18    0 1987 1055444.00 1057099.18  0.16%     -    6s
H    0     0                    1055505.0000 1057099.18  0.15%     -    6s
     0     0 1055860.60    0  716 1055505.00 1055860.60  0.03%     -    7s
H    0     0                    1055515.0000 1055860.60  0.03%     -    7s
H    0     0                    1055548.0000 1055860.60  0.03%     -    7s
     0     0 1055781.63    0  683 1055548.00 1055781.63  0.02%     -    8s
     0     0 1055781.63    0  685 1055548.00 1055781.63  0.02%     -    8s
     0     0 1055781.63    0  681 1055548.00 1055781.63  0.02%     -    8s
H    0     0                    1055558.0000 1055758.93  0.02%     -    8s
     0     0 1055758.93    0  504 1055558.00 1055758.93  0.02%     -    8s
H    0     0                    1055562.0000 1055747.53  0.02%     -    9s
     0     0 1055747.53    0  413 1055562.00 1055747.53  0.02%     -    9s
H    0     0                    1055567.0000 1055746.79  0.02%     -    9s
H    0     0                    1055568.0000 1055746.79  0.02%     -    9s
     0     0 1055746.79    0  393 1055568.00 1055746.79  0.02%     -    9s
     0     0 1055746.67    0  392 1055568.00 1055746.67  0.02%     -    9s
     0     0 1055731.87    0  379 1055568.00 1055731.87  0.02%     -   10s
     0     0 1055730.33    0  354 1055568.00 1055730.33  0.02%     -   10s
     0     0 1055730.05    0  323 1055568.00 1055730.05  0.02%     -   10s
     0     0 1055683.92    0  369 1055568.00 1055683.92  0.01%     -   11s
H    0     0                    1055606.0000 1055683.92  0.01%     -   11s
     0     0 1055679.00    0  313 1055606.00 1055679.00  0.01%     -   11s
     0     0 1055678.96    0  317 1055606.00 1055678.96  0.01%     -   11s
     0     0 1055663.30    0  129 1055606.00 1055663.30  0.01%     -   12s
H    0     0                    1055637.0000 1055663.30  0.00%     -   12s
     0     0 1055662.97    0  104 1055637.00 1055662.97  0.00%     -   12s
     0     0 1055662.29    0   97 1055637.00 1055662.29  0.00%     -   12s
H    0     0                    1055641.0000 1055662.29  0.00%     -   12s
     0     0 1055662.22    0  103 1055641.00 1055662.22  0.00%     -   13s
     0     0 1055661.53    0   89 1055641.00 1055661.53  0.00%     -   13s
H    0     0                    1055644.0000 1055661.53  0.00%     -   13s
     0     0 1055661.39    0   97 1055644.00 1055661.39  0.00%     -   13s
     0     0 1055661.36    0  115 1055644.00 1055661.36  0.00%     -   13s
     0     0 1055661.36    0  114 1055644.00 1055661.36  0.00%     -   14s
H    0     0                    1055650.0000 1055661.36  0.00%     -   14s
H    0     1                    1055651.0000 1055661.36  0.00%     -   15s
H    0     1                    1055652.0000 1055661.36  0.00%     -   15s
     0     1 1055661.33    0  111 1055652.00 1055661.33  0.00%     -   15s
*  100    49              13    1055654.0000 1055659.00  0.00%  17.0   17s
*  102    49              14    1055657.0000 1055659.00  0.00%  16.9   17s
*  120    24              16    1055658.0000 1055659.00  0.00%  15.6   18s
*  171     0              25    1055659.0000 1055659.00  0.00%  11.7   18s

Cutting planes:
  Gomory: 243
  Cover: 75
  Implied bound: 88
  MIR: 1220
  StrongCG: 61
  GUB cover: 1558
  Zero half: 272
  RLT: 216
  Relax-and-lift: 6

Explored 172 nodes (20663 simplex iterations) in 18.60 seconds (16.41 work units)
Thread count was 8 (of 8 available processors)

Solution count 10: 1.05566e+06 1.05566e+06 1.05566e+06 ... 1.05564e+06

Optimal solution found (tolerance 0.00e+00)
Best objective 1.055659000000e+06, best bound 1.055659000000e+06, gap 0.0000%
